&CONTROL
calculation='scf'
title='h2s'
prefix='h2s'
verbosity='high'
restart_mode='from_scratch'
nstep=1000
iprint=1
tstress=.true.
tprnfor=.true.
disk_io='default'
pseudo_dir='/home/almaz/sck/raman/'
tstress=.true.
tprnfor=.true.
forc_conv_thr=1.0d-4
etot_conv_thr=1.0d-5
/
&SYSTEM
ibrav = 12,
a = 20.000,
b = 20.000,
c= 20.000,
cosab=-0.500000,
nat = 3,
ntyp = 2,
ecutwfc = 60.0 ,
ecutrho = 480.0 ,
smearing = 'marzari-vanderbilt' ,
nspin=1,
occupations = 'smearing' ,
degauss = 0.001,
/
&ELECTRONS
electron_maxstep = 100,
conv_thr = 1.0d-12 ,
mixing_mode = 'plain' ,
mixing_beta = 0.3d0 ,
/
&IONS
ion_dynamics='bfgs'
upscale=20.0
/
ATOMIC_SPECIES
S	32.064	S.pz-rrkjus.UPF
H	1.0079	H.pz-rrkjus.UPF
ATOMIC_POSITIONS angstrom
S	0.000000000	0.000000000	0.000000000
H	0.000000000	0.741444279	-0.621359546
H	0.000000000	-0.741444279	-0.621359546
K_POINTS automatic
1 1 1 0 0 0
