&CONTROL
calculation='scf'
title='h2s'
prefix='h2s'
verbosity='high'
restart_mode='from_scratch'
pseudo_dir='/home/almaz/sck/raman/'
outdir='./out'
/
&SYSTEM
ibrav = 0,
nat = 3,
ntyp = 2,
celldm(1) = 1.889725989,
ecutwfc = 50.0 ,
ecutrho = 200.0 ,
smearing = 'mp' ,
nbnd=110,
occupations = 'fixed' ,
degauss = 0.01,
/
&ELECTRONS
diagonalization='david',
electron_maxstep = 100,
conv_thr = 1.0d-7 ,
mixing_mode = 'plain' ,
mixing_beta = 0.5
/
ATOMIC_SPECIES
S	32.064	S.upf
H	1.0079	H.upf
CELL_PARAMETERS (alat)
10.00000   0.00000   0.000000
0.00000    10.00000  0.000000
0.00000    0.00000   10.000000
ATOMIC_POSITIONS (crystal)
S  0.50000000  0.50000000  0.50000000
H  0.50000000  0.54707221  0.43786405
H  0.50000000  0.45292779  0.43786405
K_POINTS automatic
1 1 1 0 0 0
